
(set-logic ALL) 

(declare-datatype MyList ((Nil) (Cons (head Real) (tail MyList)) )) 
(declare-fun l0 () MyList) 
(declare-fun l1 () MyList) 
(declare-fun l2 () MyList) 
(declare-fun l3 () MyList) 
(declare-fun i0 () Real) 
(declare-fun i1 () Real) 
(assert (is-Nil l3) )
(assert (or (= l0 Nil) (= l2 l3)) )
(assert (not (= l0 Nil)) )
(assert (or (= l2 Nil) (= l3 Nil) (= l2 l0)) )
(assert (or (= l0 Nil) (= l1 Nil) (= l0 Nil) (= l1 Nil)) )
(assert (is-Cons l3) )
(assert (and (is-Nil Nil) (= l2 Nil) (= l3 Nil) (is-Nil l0)) )
(assert (is-Cons Nil) )
(check-sat)
